p cnf 403 1022
e 1 2 3 4 5 6 7 8 9 10 11 0
a 12 13 14 15 16 17 18 19 20 21 22 0
e 23 24 25 26 27 28 29 30 31 32 33 0
a 34 35 36 37 38 39 40 41 42 43 44 0
e 45 46 47 48 49 50 51 52 53 54 55 0
a 56 57 58 59 60 61 62 63 64 65 66 0
e 67 68 69 70 71 72 73 74 75 76 77 0
a 78 79 80 81 82 83 84 85 86 87 88 0
e 89 90 91 92 93 94 95 96 97 98 99 0
a 100 101 102 103 104 105 106 107 108 109 110 0
e 111 112 113 114 115 116 117 118 119 120 121 161 176 291 323 131 200 203 301 321 343 372 127 392 178 228 285 293 306 338 126 186 223 270 141 148 162 243 250 259 274 363 174 246 294 390 226 242 296 229 172 187 188 195 219 230 381 260 269 311 377 388 205 266 305 334 199 340 150 157 177 312 290 354 344 123 140 240 336 356 361 400 136 225 236 263 129 143 257 272 380 328 128 261 277 298 314 345 253 268 286 332 333 185 245 267 331 362 382 387 369 152 171 234 258 281 297 371 383 403 278 367 379 210 190 271 339 155 265 308 348 201 239 368 386 275 282 330 346 378 164 192 395 202 154 158 170 227 251 313 319 167 194 198 221 309 389 193 216 310 181 307 365 142 165 218 302 255 133 149 163 184 196 262 398 318 151 212 402 247 214 237 335 222 322 326 370 166 252 316 160 209 224 233 397 220 287 351 393 197 215 350 355 349 132 168 232 360 399 159 211 337 359 366 122 276 347 374 342 175 289 303 352 376 182 130 135 146 173 325 244 292 320 341 180 315 364 373 396 125 207 283 394 284 137 156 241 264 279 324 329 375 153 183 206 299 300 353 208 273 139 147 169 213 249 357 358 384 385 235 401 138 179 189 204 145 217 248 295 254 256 304 144 288 317 327 391 124 238 280 134 191 231 0
122 0
123 0
124 0
125 0
-111 126 0
111 -126 0
-112 127 0
112 -127 0
-113 128 0
113 -128 0
-114 129 0
114 -129 0
-115 130 0
115 -130 0
-116 131 0
116 -131 0
-117 132 0
117 -132 0
-118 133 0
118 -133 0
-119 134 0
119 -134 0
-120 135 0
120 -135 0
-121 136 0
121 -136 0
-1 23 0
-2 24 0
-3 25 0
-4 26 0
-5 27 0
-6 28 0
-7 29 0
-8 30 0
-9 31 0
-10 32 0
-11 33 0
-23 45 0
-24 46 0
-25 47 0
-26 48 0
-27 49 0
-28 50 0
-29 51 0
-30 52 0
-31 53 0
-32 54 0
-33 55 0
-45 67 0
-46 68 0
-47 69 0
-48 70 0
-49 71 0
-50 72 0
-51 73 0
-52 74 0
-53 75 0
-54 76 0
-55 77 0
-67 89 0
-68 90 0
-69 91 0
-70 92 0
-71 93 0
-72 94 0
-73 95 0
-74 96 0
-75 97 0
-76 98 0
-77 99 0
-89 111 0
-90 112 0
-91 113 0
-92 114 0
-93 115 0
-94 116 0
-95 117 0
-96 118 0
-97 119 0
-98 120 0
-99 121 0
137 -1 0
-137 1 0
-137 138 0
138 -2 0
137 -138 2 0
-137 139 -2 0
-139 2 0
137 -139 0
-138 140 0
140 -3 0
138 -140 3 0
-139 141 0
-138 141 -3 0
139 -141 3 0
138 -141 0
-140 142 0
142 -4 0
140 -142 4 0
-141 143 0
-140 143 -4 0
141 -143 4 0
140 -143 0
-142 144 0
144 -5 0
142 -144 5 0
-143 145 0
-142 145 -5 0
143 -145 5 0
142 -145 0
-144 146 0
146 -6 0
144 -146 6 0
-145 147 0
-144 147 -6 0
145 -147 6 0
144 -147 0
-146 148 0
148 -7 0
146 -148 7 0
-147 149 0
-146 149 -7 0
147 -149 7 0
146 -149 0
-148 150 0
150 -8 0
148 -150 8 0
-149 151 0
-148 151 -8 0
149 -151 8 0
148 -151 0
-150 152 0
152 -9 0
150 -152 9 0
-151 153 0
-150 153 -9 0
151 -153 9 0
150 -153 0
-152 154 0
154 -10 0
152 -154 10 0
-153 155 0
-152 155 -10 0
153 -155 10 0
152 -155 0
-154 156 0
156 -11 0
154 -156 11 0
-155 157 0
-154 157 -11 0
155 -157 11 0
154 -157 0
-158 156 0
-158 -157 0
159 1 -23 0
-159 -1 0
-159 23 0
-159 160 0
160 2 -24 0
159 -160 -2 0
159 -160 24 0
-159 161 2 -24 0
-161 -2 0
-161 24 0
159 -161 0
-160 162 0
162 3 -25 0
160 -162 -3 0
160 -162 25 0
-161 163 0
-160 163 3 -25 0
161 -163 -3 0
161 -163 25 0
160 -163 0
-162 164 0
164 4 -26 0
162 -164 -4 0
162 -164 26 0
-163 165 0
-162 165 4 -26 0
163 -165 -4 0
163 -165 26 0
162 -165 0
-164 166 0
166 5 -27 0
164 -166 -5 0
164 -166 27 0
-165 167 0
-164 167 5 -27 0
165 -167 -5 0
165 -167 27 0
164 -167 0
-166 168 0
168 6 -28 0
166 -168 -6 0
166 -168 28 0
-167 169 0
-166 169 6 -28 0
167 -169 -6 0
167 -169 28 0
166 -169 0
-168 170 0
170 7 -29 0
168 -170 -7 0
168 -170 29 0
-169 171 0
-168 171 7 -29 0
169 -171 -7 0
169 -171 29 0
168 -171 0
-170 172 0
172 8 -30 0
170 -172 -8 0
170 -172 30 0
-171 173 0
-170 173 8 -30 0
171 -173 -8 0
171 -173 30 0
170 -173 0
-172 174 0
174 9 -31 0
172 -174 -9 0
172 -174 31 0
-173 175 0
-172 175 9 -31 0
173 -175 -9 0
173 -175 31 0
172 -175 0
-174 176 0
176 10 -32 0
174 -176 -10 0
174 -176 32 0
-175 177 0
-174 177 10 -32 0
175 -177 -10 0
175 -177 32 0
174 -177 0
-176 178 0
178 11 -33 0
176 -178 -11 0
176 -178 33 0
-177 179 0
-176 179 11 -33 0
177 -179 -11 0
177 -179 33 0
176 -179 0
-158 178 0
-158 -179 0
180 23 -45 0
-180 -23 0
-180 45 0
-180 181 0
181 24 -46 0
180 -181 -24 0
180 -181 46 0
-180 182 24 -46 0
-182 -24 0
-182 46 0
180 -182 0
-181 183 0
183 25 -47 0
181 -183 -25 0
181 -183 47 0
-182 184 0
-181 184 25 -47 0
182 -184 -25 0
182 -184 47 0
181 -184 0
-183 185 0
185 26 -48 0
183 -185 -26 0
183 -185 48 0
-184 186 0
-183 186 26 -48 0
184 -186 -26 0
184 -186 48 0
183 -186 0
-185 187 0
187 27 -49 0
185 -187 -27 0
185 -187 49 0
-186 188 0
-185 188 27 -49 0
186 -188 -27 0
186 -188 49 0
185 -188 0
-187 189 0
189 28 -50 0
187 -189 -28 0
187 -189 50 0
-188 190 0
-187 190 28 -50 0
188 -190 -28 0
188 -190 50 0
187 -190 0
-189 191 0
191 29 -51 0
189 -191 -29 0
189 -191 51 0
-190 192 0
-189 192 29 -51 0
190 -192 -29 0
190 -192 51 0
189 -192 0
-191 193 0
193 30 -52 0
191 -193 -30 0
191 -193 52 0
-192 194 0
-191 194 30 -52 0
192 -194 -30 0
192 -194 52 0
191 -194 0
-193 195 0
195 31 -53 0
193 -195 -31 0
193 -195 53 0
-194 196 0
-193 196 31 -53 0
194 -196 -31 0
194 -196 53 0
193 -196 0
-195 197 0
197 32 -54 0
195 -197 -32 0
195 -197 54 0
-196 198 0
-195 198 32 -54 0
196 -198 -32 0
196 -198 54 0
195 -198 0
-197 199 0
199 33 -55 0
197 -199 -33 0
197 -199 55 0
-198 200 0
-197 200 33 -55 0
198 -200 -33 0
198 -200 55 0
197 -200 0
-158 199 0
-158 -200 0
201 45 -67 0
-201 -45 0
-201 67 0
-201 202 0
202 46 -68 0
201 -202 -46 0
201 -202 68 0
-201 203 46 -68 0
-203 -46 0
-203 68 0
201 -203 0
-202 204 0
204 47 -69 0
202 -204 -47 0
202 -204 69 0
-203 205 0
-202 205 47 -69 0
203 -205 -47 0
203 -205 69 0
202 -205 0
-204 206 0
206 48 -70 0
204 -206 -48 0
204 -206 70 0
-205 207 0
-204 207 48 -70 0
205 -207 -48 0
205 -207 70 0
204 -207 0
-206 208 0
208 49 -71 0
206 -208 -49 0
206 -208 71 0
-207 209 0
-206 209 49 -71 0
207 -209 -49 0
207 -209 71 0
206 -209 0
-208 210 0
210 50 -72 0
208 -210 -50 0
208 -210 72 0
-209 211 0
-208 211 50 -72 0
209 -211 -50 0
209 -211 72 0
208 -211 0
-210 212 0
212 51 -73 0
210 -212 -51 0
210 -212 73 0
-211 213 0
-210 213 51 -73 0
211 -213 -51 0
211 -213 73 0
210 -213 0
-212 214 0
214 52 -74 0
212 -214 -52 0
212 -214 74 0
-213 215 0
-212 215 52 -74 0
213 -215 -52 0
213 -215 74 0
212 -215 0
-214 216 0
216 53 -75 0
214 -216 -53 0
214 -216 75 0
-215 217 0
-214 217 53 -75 0
215 -217 -53 0
215 -217 75 0
214 -217 0
-216 218 0
218 54 -76 0
216 -218 -54 0
216 -218 76 0
-217 219 0
-216 219 54 -76 0
217 -219 -54 0
217 -219 76 0
216 -219 0
-218 220 0
220 55 -77 0
218 -220 -55 0
218 -220 77 0
-219 221 0
-218 221 55 -77 0
219 -221 -55 0
219 -221 77 0
218 -221 0
-158 220 0
-158 -221 0
222 67 -89 0
-222 -67 0
-222 89 0
-222 223 0
223 68 -90 0
222 -223 -68 0
222 -223 90 0
-222 224 68 -90 0
-224 -68 0
-224 90 0
222 -224 0
-223 225 0
225 69 -91 0
223 -225 -69 0
223 -225 91 0
-224 226 0
-223 226 69 -91 0
224 -226 -69 0
224 -226 91 0
223 -226 0
-225 227 0
227 70 -92 0
225 -227 -70 0
225 -227 92 0
-226 228 0
-225 228 70 -92 0
226 -228 -70 0
226 -228 92 0
225 -228 0
-227 229 0
229 71 -93 0
227 -229 -71 0
227 -229 93 0
-228 230 0
-227 230 71 -93 0
228 -230 -71 0
228 -230 93 0
227 -230 0
-229 231 0
231 72 -94 0
229 -231 -72 0
229 -231 94 0
-230 232 0
-229 232 72 -94 0
230 -232 -72 0
230 -232 94 0
229 -232 0
-231 233 0
233 73 -95 0
231 -233 -73 0
231 -233 95 0
-232 234 0
-231 234 73 -95 0
232 -234 -73 0
232 -234 95 0
231 -234 0
-233 235 0
235 74 -96 0
233 -235 -74 0
233 -235 96 0
-234 236 0
-233 236 74 -96 0
234 -236 -74 0
234 -236 96 0
233 -236 0
-235 237 0
237 75 -97 0
235 -237 -75 0
235 -237 97 0
-236 238 0
-235 238 75 -97 0
236 -238 -75 0
236 -238 97 0
235 -238 0
-237 239 0
239 76 -98 0
237 -239 -76 0
237 -239 98 0
-238 240 0
-237 240 76 -98 0
238 -240 -76 0
238 -240 98 0
237 -240 0
-239 241 0
241 77 -99 0
239 -241 -77 0
239 -241 99 0
-240 242 0
-239 242 77 -99 0
240 -242 -77 0
240 -242 99 0
239 -242 0
-158 241 0
-158 -242 0
243 89 -111 0
-243 -89 0
-243 111 0
-243 244 0
244 90 -112 0
243 -244 -90 0
243 -244 112 0
-243 245 90 -112 0
-245 -90 0
-245 112 0
243 -245 0
-244 246 0
246 91 -113 0
244 -246 -91 0
244 -246 113 0
-245 247 0
-244 247 91 -113 0
245 -247 -91 0
245 -247 113 0
244 -247 0
-246 248 0
248 92 -114 0
246 -248 -92 0
246 -248 114 0
-247 249 0
-246 249 92 -114 0
247 -249 -92 0
247 -249 114 0
246 -249 0
-248 250 0
250 93 -115 0
248 -250 -93 0
248 -250 115 0
-249 251 0
-248 251 93 -115 0
249 -251 -93 0
249 -251 115 0
248 -251 0
-250 252 0
252 94 -116 0
250 -252 -94 0
250 -252 116 0
-251 253 0
-250 253 94 -116 0
251 -253 -94 0
251 -253 116 0
250 -253 0
-252 254 0
254 95 -117 0
252 -254 -95 0
252 -254 117 0
-253 255 0
-252 255 95 -117 0
253 -255 -95 0
253 -255 117 0
252 -255 0
-254 256 0
256 96 -118 0
254 -256 -96 0
254 -256 118 0
-255 257 0
-254 257 96 -118 0
255 -257 -96 0
255 -257 118 0
254 -257 0
-256 258 0
258 97 -119 0
256 -258 -97 0
256 -258 119 0
-257 259 0
-256 259 97 -119 0
257 -259 -97 0
257 -259 119 0
256 -259 0
-258 260 0
260 98 -120 0
258 -260 -98 0
258 -260 120 0
-259 261 0
-258 261 98 -120 0
259 -261 -98 0
259 -261 120 0
258 -261 0
-260 262 0
262 99 -121 0
260 -262 -99 0
260 -262 121 0
-261 263 0
-260 263 99 -121 0
261 -263 -99 0
261 -263 121 0
260 -263 0
-158 262 0
-158 -263 0
-264 12 0
264 -265 13 0
-266 13 0
264 -266 0
265 -267 14 0
266 -268 14 0
265 -268 0
267 -269 15 0
268 -270 15 0
267 -270 0
269 -271 16 0
270 -272 16 0
269 -272 0
271 -273 17 0
272 -274 17 0
271 -274 0
273 -275 18 0
274 -276 18 0
273 -276 0
275 -277 19 0
276 -278 19 0
275 -278 0
277 -279 20 0
278 -280 20 0
277 -280 0
279 -281 21 0
280 -282 21 0
279 -282 0
281 -283 22 0
282 -284 22 0
281 -284 0
-285 34 0
285 -286 35 0
-287 35 0
285 -287 0
286 -288 36 0
287 -289 36 0
286 -289 0
288 -290 37 0
289 -291 37 0
288 -291 0
290 -292 38 0
291 -293 38 0
290 -293 0
292 -294 39 0
293 -295 39 0
292 -295 0
294 -296 40 0
295 -297 40 0
294 -297 0
296 -298 41 0
297 -299 41 0
296 -299 0
298 -300 42 0
299 -301 42 0
298 -301 0
300 -302 43 0
301 -303 43 0
300 -303 0
302 -304 44 0
303 -305 44 0
302 -305 0
-306 56 0
306 -307 57 0
-308 57 0
306 -308 0
307 -309 58 0
308 -310 58 0
307 -310 0
309 -311 59 0
310 -312 59 0
309 -312 0
311 -313 60 0
312 -314 60 0
311 -314 0
313 -315 61 0
314 -316 61 0
313 -316 0
315 -317 62 0
316 -318 62 0
315 -318 0
317 -319 63 0
318 -320 63 0
317 -320 0
319 -321 64 0
320 -322 64 0
319 -322 0
321 -323 65 0
322 -324 65 0
321 -324 0
323 -325 66 0
324 -326 66 0
323 -326 0
-327 78 0
327 -328 79 0
-329 79 0
327 -329 0
328 -330 80 0
329 -331 80 0
328 -331 0
330 -332 81 0
331 -333 81 0
330 -333 0
332 -334 82 0
333 -335 82 0
332 -335 0
334 -336 83 0
335 -337 83 0
334 -337 0
336 -338 84 0
337 -339 84 0
336 -339 0
338 -340 85 0
339 -341 85 0
338 -341 0
340 -342 86 0
341 -343 86 0
340 -343 0
342 -344 87 0
343 -345 87 0
342 -345 0
344 -346 88 0
345 -347 88 0
344 -347 0
-348 100 0
348 -349 101 0
-350 101 0
348 -350 0
349 -351 102 0
350 -352 102 0
349 -352 0
351 -353 103 0
352 -354 103 0
351 -354 0
353 -355 104 0
354 -356 104 0
353 -356 0
355 -357 105 0
356 -358 105 0
355 -358 0
357 -359 106 0
358 -360 106 0
357 -360 0
359 -361 107 0
360 -362 107 0
359 -362 0
361 -363 108 0
362 -364 108 0
361 -364 0
363 -365 109 0
364 -366 109 0
363 -366 0
365 -367 110 0
366 -368 110 0
365 -368 0
1 -12 -126 0
23 -34 -126 0
45 -56 -126 0
67 -78 -126 0
89 -100 -126 0
2 -13 -127 0
24 -35 -127 0
46 -57 -127 0
68 -79 -127 0
90 -101 -127 0
3 -14 -128 0
25 -36 -128 0
47 -58 -128 0
69 -80 -128 0
91 -102 -128 0
4 -15 -129 0
26 -37 -129 0
48 -59 -129 0
70 -81 -129 0
92 -103 -129 0
5 -16 -130 0
27 -38 -130 0
49 -60 -130 0
71 -82 -130 0
93 -104 -130 0
6 -17 -131 0
28 -39 -131 0
50 -61 -131 0
72 -83 -131 0
94 -105 -131 0
7 -18 -132 0
29 -40 -132 0
51 -62 -132 0
73 -84 -132 0
95 -106 -132 0
8 -19 -133 0
30 -41 -133 0
52 -63 -133 0
74 -85 -133 0
96 -107 -133 0
9 -20 -134 0
31 -42 -134 0
53 -64 -134 0
75 -86 -134 0
97 -108 -134 0
10 -21 -135 0
32 -43 -135 0
54 -65 -135 0
76 -87 -135 0
98 -109 -135 0
11 -22 -136 0
33 -44 -136 0
55 -66 -136 0
77 -88 -136 0
99 -110 -136 0
-369 126 0
-369 127 0
-369 128 0
369 -126 -127 -128 0
-370 126 0
-370 127 0
-370 129 0
-370 131 0
-370 134 0
-370 135 0
-370 133 0
370 -126 -127 -129 -131 -134 -135 -133 0
-371 126 0
-371 127 0
-371 129 0
-371 131 0
-371 134 0
-371 135 0
-371 136 0
371 -126 -127 -129 -131 -134 -135 -136 0
-372 126 0
-372 127 0
-372 129 0
-372 132 0
-372 133 0
372 -126 -127 -129 -132 -133 0
-373 126 0
-373 127 0
-373 129 0
-373 132 0
-373 135 0
-373 136 0
373 -126 -127 -129 -132 -135 -136 0
-374 126 0
-374 129 0
-374 128 0
374 -126 -129 -128 0
-375 126 0
-375 129 0
-375 132 0
-375 133 0
375 -126 -129 -132 -133 0
-376 126 0
-376 129 0
-376 132 0
-376 135 0
-376 136 0
376 -126 -129 -132 -135 -136 0
-377 126 0
-377 131 0
-377 132 0
-377 133 0
377 -126 -131 -132 -133 0
-378 126 0
-378 131 0
-378 132 0
-378 135 0
-378 136 0
378 -126 -131 -132 -135 -136 0
-379 126 0
-379 131 0
-379 134 0
-379 135 0
-379 133 0
379 -126 -131 -134 -135 -133 0
-380 126 0
-380 131 0
-380 134 0
-380 135 0
-380 136 0
380 -126 -131 -134 -135 -136 0
-381 127 0
-381 128 0
381 -127 -128 0
-382 127 0
-382 129 0
-382 131 0
-382 134 0
-382 135 0
-382 133 0
382 -127 -129 -131 -134 -135 -133 0
-383 127 0
-383 129 0
-383 131 0
-383 134 0
-383 135 0
-383 136 0
383 -127 -129 -131 -134 -135 -136 0
-384 127 0
-384 129 0
-384 132 0
-384 133 0
384 -127 -129 -132 -133 0
-385 127 0
-385 129 0
-385 132 0
-385 135 0
-385 136 0
385 -127 -129 -132 -135 -136 0
-386 127 0
-386 128 0
386 -127 -128 0
-387 129 0
-387 128 0
387 -129 -128 0
-388 129 0
-388 132 0
-388 133 0
388 -129 -132 -133 0
-389 129 0
-389 132 0
-389 135 0
-389 136 0
389 -129 -132 -135 -136 0
-390 131 0
-390 132 0
-390 133 0
390 -131 -132 -133 0
-391 131 0
-391 132 0
-391 135 0
-391 136 0
391 -131 -132 -135 -136 0
-392 131 0
-392 134 0
-392 135 0
-392 133 0
392 -131 -134 -135 -133 0
-393 131 0
-393 134 0
-393 135 0
-393 136 0
393 -131 -134 -135 -136 0
-394 130 0
-394 127 0
-394 128 0
394 -130 -127 -128 0
-395 130 0
-395 129 0
-395 128 0
395 -130 -129 -128 0
-396 130 0
-396 129 0
-396 132 0
-396 133 0
396 -130 -129 -132 -133 0
-397 130 0
-397 129 0
-397 132 0
-397 135 0
-397 136 0
397 -130 -129 -132 -135 -136 0
-398 130 0
-398 131 0
-398 129 0
-398 128 0
398 -130 -131 -129 -128 0
-399 130 0
-399 131 0
-399 132 0
-399 133 0
399 -130 -131 -132 -133 0
-400 130 0
-400 131 0
-400 132 0
-400 135 0
-400 136 0
400 -130 -131 -132 -135 -136 0
-401 130 0
-401 131 0
-401 134 0
-401 135 0
-401 133 0
401 -130 -131 -134 -135 -133 0
-402 130 0
-402 131 0
-402 134 0
-402 135 0
-402 136 0
402 -130 -131 -134 -135 -136 0
-403 369 370 371 372 373 374 375 376 377 378 379 380 381 382 383 384 385 386 387 388 389 390 391 392 393 394 395 396 397 398 399 400 401 402 0
-284 -158 0
-305 -158 0
-326 -158 0
-347 -158 0
-368 -158 0
158 284 305 326 347 368 0
403 -158 0
